0
Node Left Objective IInf Best_Integer Best_Bound ItCnt Gap
0+ 0 nan nan 136.4723 0.0000 nan 100.00%
0+ 0 nan nan 99.1655 0.0000 nan 100.00%
0 0 0.0000 27 99.1655 0.0000 121 100.00%
0+ 0 nan nan 96.1103 0.0000 nan 100.00%
0 2 0.0000 24 96.1103 0.0000 121 100.00%
CPXPARAM_MIP_Cuts_Covers 0
1
Node Left Objective IInf Best_Integer Best_Bound ItCnt Gap
0+ 0 nan nan 136.4723 0.0000 nan 100.00%
0+ 0 nan nan 99.1655 0.0000 nan 100.00%
0 0 0.0000 27 99.1655 0.0000 118 100.00%
0+ 0 nan nan 78.3951 0.0000 nan 100.00%
0+ 0 nan nan 66.0135 0.0000 nan 100.00%
0 2 0.0000 18 66.0135 0.0000 118 100.00%
CPXPARAM_MIP_Cuts_Covers 0
2
Node Left Objective IInf Best_Integer Best_Bound ItCnt Gap
0+ 0 nan nan 136.4723 0.0000 nan 100.00%
0+ 0 nan nan 69.8576 0.0000 nan 100.00%
0 0 0.0000 23 69.8576 0.0000 119 100.00%
0+ 0 nan nan 69.1377 0.0000 nan 100.00%
0+ 0 nan nan 69.0899 0.0000 nan 100.00%
0+ 0 nan nan 60.3853 0.0000 nan 100.00%
0 2 0.0000 20 60.3853 0.0000 119 100.00%
CPXPARAM_MIP_Cuts_Covers 0
3
Node Left Objective IInf Best_Integer Best_Bound ItCnt Gap
0+ 0 nan nan 136.4723 0.0000 nan 100.00%
0 0 0.0000 24 136.4723 0.0000 102 100.00%
0+ 0 nan nan 41.1390 0.0000 nan 100.00%
0+ 0 nan nan 32.1032 0.0000 nan 100.00%
0 2 0.0000 13 32.1032 0.0000 102 100.00%
CPXPARAM_MIP_Cuts_Covers 0
4
Node Left Objective IInf Best_Integer Best_Bound ItCnt Gap
0+ 0 nan nan 115.1924 0.0000 nan 100.00%
0+ 0 nan nan 108.1598 0.0000 nan 100.00%
0+ 0 nan nan 98.2525 0.0000 nan 100.00%
0 0 0.0000 27 98.2525 0.0000 128 100.00%
0+ 0 nan nan 89.4083 0.0000 nan 100.00%
0+ 0 nan nan 85.5656 0.0000 nan 100.00%
0+ 0 nan nan 75.2260 0.0000 nan 100.00%
0 2 0.0000 24 75.2260 0.0000 128 100.00%
CPXPARAM_MIP_Cuts_Covers 0
5
Node Left Objective IInf Best_Integer Best_Bound ItCnt Gap
0+ 0 nan nan 115.1924 0.0000 nan 100.00%
0+ 0 nan nan 108.1598 0.0000 nan 100.00%
0+ 0 nan nan 79.8300 0.0000 nan 100.00%
0 0 0.0000 27 79.8300 0.0000 120 100.00%
0+ 0 nan nan 74.4608 0.0000 nan 100.00%
0+ 0 nan nan 65.3033 0.0000 nan 100.00%
0+ 0 nan nan 49.2242 0.0000 nan 100.00%
0 2 0.0000 18 49.2242 0.0000 120 100.00%
CPXPARAM_MIP_Cuts_Covers 0
6
Node Left Objective IInf Best_Integer Best_Bound ItCnt Gap
0+ 0 nan nan 115.1924 0.0000 nan 100.00%
0+ 0 nan nan 81.9438 0.0000 nan 100.00%
0 0 0.0000 23 81.9438 0.0000 119 100.00%
0+ 0 nan nan 80.6567 0.0000 nan 100.00%
0+ 0 nan nan 72.5973 0.0000 nan 100.00%
0+ 0 nan nan 64.2641 0.0000 nan 100.00%
0+ 0 nan nan 52.9380 0.0000 nan 100.00%
0 2 0.0000 21 52.9380 0.0000 119 100.00%
CPXPARAM_MIP_Cuts_Covers 0
7
Node Left Objective IInf Best_Integer Best_Bound ItCnt Gap
0+ 0 nan nan 115.1924 0.0000 nan 100.00%
0+ 0 nan nan 81.9438 0.0000 nan 100.00%
0 0 0.0000 23 81.9438 0.0000 110 100.00%
0+ 0 nan nan 71.2025 0.0000 nan 100.00%
0+ 0 nan nan 70.3682 0.0000 nan 100.00%
0+ 0 nan nan 60.6180 0.0000 nan 100.00%
0 2 0.0000 13 60.6180 0.0000 110 100.00%
CPXPARAM_MIP_Cuts_Covers 0
8
Node Left Objective IInf Best_Integer Best_Bound ItCnt Gap
0+ 0 nan nan 131.6037 0.0000 nan 100.00%
0+ 0 nan nan 111.2422 0.0000 nan 100.00%
0 0 0.0000 27 111.2422 0.0000 112 100.00%
0+ 0 nan nan 110.4315 0.0000 nan 100.00%
0+ 0 nan nan 109.7491 0.0000 nan 100.00%
0+ 0 nan nan 93.8366 0.0000 nan 100.00%
0 2 0.0000 25 93.8366 0.0000 112 100.00%
CPXPARAM_MIP_Cuts_Covers 0
9
Node Left Objective IInf Best_Integer Best_Bound ItCnt Gap
0+ 0 nan nan 131.6037 0.0000 nan 100.00%
0+ 0 nan nan 111.2422 0.0000 nan 100.00%
0 0 0.0000 27 111.2422 0.0000 126 100.00%
0+ 0 nan nan 81.5623 0.0000 nan 100.00%
0+ 0 nan nan 81.1793 0.0000 nan 100.00%
0+ 0 nan nan 72.4663 0.0000 nan 100.00%
0+ 0 nan nan 67.1615 0.0000 nan 100.00%
0 2 0.0000 18 67.1615 0.0000 126 100.00%
CPXPARAM_MIP_Cuts_Covers 0
10
Node Left Objective IInf Best_Integer Best_Bound ItCnt Gap
0+ 0 nan nan 131.6037 0.0000 nan 100.00%
0+ 0 nan nan 99.6733 0.0000 nan 100.00%
0 0 0.0000 23 99.6733 0.0000 121 100.00%
0+ 0 nan nan 97.3906 0.0000 nan 100.00%
0+ 0 nan nan 89.0629 0.0000 nan 100.00%
0+ 0 nan nan 88.0156 0.0000 nan 100.00%
0 2 0.0000 19 88.0156 0.0000 121 100.00%
CPXPARAM_MIP_Cuts_Covers 0
11
Node Left Objective IInf Best_Integer Best_Bound ItCnt Gap
0+ 0 nan nan 131.6037 0.0000 nan 100.00%
0+ 0 nan nan 99.6733 0.0000 nan 100.00%
0 0 0.0000 23 99.6733 0.0000 127 100.00%
0+ 0 nan nan 63.9599 0.0000 nan 100.00%
0+ 0 nan nan 62.6718 0.0000 nan 100.00%
0 2 0.0000 13 62.6718 0.0000 127 100.00%
CPXPARAM_MIP_Cuts_Covers 0
12
Node Left Objective IInf Best_Integer Best_Bound ItCnt Gap
0+ 0 nan nan 110.3567 0.0000 nan 100.00%
0+ 0 nan nan 96.6816 0.0000 nan 100.00%
0 0 0.0000 27 96.6816 0.0000 120 100.00%
0+ 0 nan nan 91.3689 0.0000 nan 100.00%
0+ 0 nan nan 76.0951 0.0000 nan 100.00%
0 2 0.0000 24 76.0951 0.0000 120 100.00%
CPXPARAM_MIP_Cuts_Covers 0
13
Node Left Objective IInf Best_Integer Best_Bound ItCnt Gap
0+ 0 nan nan 110.3567 0.0000 nan 100.00%
0+ 0 nan nan 96.6816 0.0000 nan 100.00%
0 0 0.0000 27 96.6816 0.0000 117 100.00%
0+ 0 nan nan 78.4067 0.0000 nan 100.00%
0+ 0 nan nan 77.0292 0.0000 nan 100.00%
0+ 0 nan nan 61.4553 0.0000 nan 100.00%
0 2 0.0000 18 61.4553 0.0000 117 100.00%
CPXPARAM_MIP_Cuts_Covers 0
14
Node Left Objective IInf Best_Integer Best_Bound ItCnt Gap
0+ 0 nan nan 110.3567 0.0000 nan 100.00%
0+ 0 nan nan 82.1268 0.0000 nan 100.00%
0 0 0.0000 23 82.1268 0.0000 114 100.00%
0+ 0 nan nan 74.7672 0.0000 nan 100.00%
0 2 0.0000 19 74.7672 0.0000 114 100.00%
CPXPARAM_MIP_Cuts_Covers 0
15
Node Left Objective IInf Best_Integer Best_Bound ItCnt Gap
0+ 0 nan nan 110.3567 0.0000 nan 100.00%
0+ 0 nan nan 82.1268 0.0000 nan 100.00%
0 0 0.0000 23 82.1268 0.0000 111 100.00%
0+ 0 nan nan 53.3052 0.0000 nan 100.00%
0+ 0 nan nan 50.7826 0.0000 nan 100.00%
0 2 0.0000 13 50.7826 0.0000 111 100.00%
CPXPARAM_MIP_Cuts_Covers 0
16
Node Left Objective IInf Best_Integer Best_Bound ItCnt Gap
0+ 0 nan nan 109.2984 0.0000 nan 100.00%
0+ 0 nan nan 97.6971 0.0000 nan 100.00%
0 0 0.0000 27 97.6971 0.0000 122 100.00%
0+ 0 nan nan 97.4587 0.0000 nan 100.00%
0+ 0 nan nan 96.9730 0.0000 nan 100.00%
0+ 0 nan nan 91.7514 0.0000 nan 100.00%
0+ 0 nan nan 87.2211 0.0000 nan 100.00%
0+ 0 nan nan 84.6796 0.0000 nan 100.00%
0 2 0.0000 24 84.6796 0.0000 122 100.00%
CPXPARAM_MIP_Cuts_Covers 0
17
Node Left Objective IInf Best_Integer Best_Bound ItCnt Gap
0+ 0 nan nan 109.2984 0.0000 nan 100.00%
0+ 0 nan nan 97.6971 0.0000 nan 100.00%
0 0 0.0000 27 97.6971 0.0000 113 100.00%
0+ 0 nan nan 69.1781 0.0000 nan 100.00%
0+ 0 nan nan 66.1806 0.0000 nan 100.00%
0+ 0 nan nan 51.0931 0.0000 nan 100.00%
0 2 0.0000 18 51.0931 0.0000 113 100.00%
CPXPARAM_MIP_Cuts_Covers 0
18
Node Left Objective IInf Best_Integer Best_Bound ItCnt Gap
0+ 0 nan nan 109.2984 0.0000 nan 100.00%
0+ 0 nan nan 86.6088 0.0000 nan 100.00%
0 0 0.0000 23 86.6088 0.0000 119 100.00%
0+ 0 nan nan 79.5898 0.0000 nan 100.00%
0+ 0 nan nan 65.7792 0.0000 nan 100.00%
0 2 0.0000 19 65.7792 0.0000 119 100.00%
CPXPARAM_MIP_Cuts_Covers 0
19
Node Left Objective IInf Best_Integer Best_Bound ItCnt Gap
0+ 0 nan nan 109.2984 0.0000 nan 100.00%
0+ 0 nan nan 86.6088 0.0000 nan 100.00%
0 0 0.0000 25 86.6088 0.0000 112 100.00%
0+ 0 nan nan 58.2160 0.0000 nan 100.00%
0+ 0 nan nan 51.4760 0.0000 nan 100.00%
0+ 0 nan nan 34.5790 0.0000 nan 100.00%
0 2 0.0000 14 34.5790 0.0000 112 100.00%
CPXPARAM_MIP_Cuts_Covers 0
20
Node Left Objective IInf Best_Integer Best_Bound ItCnt Gap
0+ 0 nan nan 93.3792 0.0000 nan 100.00%
0+ 0 nan nan 84.6822 0.0000 nan 100.00%
0 0 0.0000 27 84.6822 0.0000 123 100.00%
0+ 0 nan nan 70.9667 0.0000 nan 100.00%
0+ 0 nan nan 69.4584 0.0000 nan 100.00%
0+ 0 nan nan 65.9843 0.0000 nan 100.00%
0+ 0 nan nan 56.1186 0.0000 nan 100.00%
0 2 0.0000 24 56.1186 0.0000 123 100.00%
CPXPARAM_MIP_Cuts_Covers 0
21
Node Left Objective IInf Best_Integer Best_Bound ItCnt Gap
0+ 0 nan nan 93.3792 0.0000 nan 100.00%
0+ 0 nan nan 84.6822 0.0000 nan 100.00%
0 0 0.0000 27 84.6822 0.0000 129 100.00%
0+ 0 nan nan 53.3525 0.0000 nan 100.00%
0+ 0 nan nan 50.5232 0.0000 nan 100.00%
0 2 0.0000 18 50.5232 0.0000 129 100.00%
CPXPARAM_MIP_Cuts_Covers 0
22
Node Left Objective IInf Best_Integer Best_Bound ItCnt Gap
0+ 0 nan nan 93.3792 0.0000 nan 100.00%
0+ 0 nan nan 77.4137 0.0000 nan 100.00%
0 0 0.0000 23 77.4137 0.0000 122 100.00%
0+ 0 nan nan 61.3589 0.0000 nan 100.00%
0+ 0 nan nan 58.3501 0.0000 nan 100.00%
0+ 0 nan nan 48.6622 0.0000 nan 100.00%
0 2 0.0000 19 48.6622 0.0000 122 100.00%
CPXPARAM_MIP_Cuts_Covers 0
23
Node Left Objective IInf Best_Integer Best_Bound ItCnt Gap
0+ 0 nan nan 93.3792 0.0000 nan 100.00%
0+ 0 nan nan 77.4137 0.0000 nan 100.00%
0 0 0.0000 23 77.4137 0.0000 112 100.00%
0+ 0 nan nan 50.0593 0.0000 nan 100.00%
0+ 0 nan nan 37.3427 0.0000 nan 100.00%
0 2 0.0000 13 37.3427 0.0000 112 100.00%
CPXPARAM_MIP_Cuts_Covers 0
24
Node Left Objective IInf Best_Integer Best_Bound ItCnt Gap
0+ 0 nan nan 94.5045 0.0000 nan 100.00%
0+ 0 nan nan 83.7373 0.0000 nan 100.00%
0 0 0.0000 27 83.7373 0.0000 126 100.00%
0+ 0 nan nan 81.1267 0.0000 nan 100.00%
0+ 0 nan nan 77.0701 0.0000 nan 100.00%
0+ 0 nan nan 65.9263 0.0000 nan 100.00%
0+ 0 nan nan 64.7237 0.0000 nan 100.00%
0 2 0.0000 24 64.7237 0.0000 126 100.00%
CPXPARAM_MIP_Cuts_Covers 0
25
Node Left Objective IInf Best_Integer Best_Bound ItCnt Gap
0+ 0 nan nan 94.5045 0.0000 nan 100.00%
0+ 0 nan nan 83.7373 0.0000 nan 100.00%
0 0 0.0000 27 83.7373 0.0000 113 100.00%
0+ 0 nan nan 57.0887 0.0000 nan 100.00%
0+ 0 nan nan 44.4023 0.0000 nan 100.00%
0 2 0.0000 18 44.4023 0.0000 113 100.00%
CPXPARAM_MIP_Cuts_Covers 0
26
Node Left Objective IInf Best_Integer Best_Bound ItCnt Gap
0+ 0 nan nan 94.5045 0.0000 nan 100.00%
0+ 0 nan nan 77.4984 0.0000 nan 100.00%
0 0 0.0000 22 77.4984 0.0000 104 100.00%
0+ 0 nan nan 68.7941 0.0000 nan 100.00%
0+ 0 nan nan 68.7770 0.0000 nan 100.00%
0+ 0 nan nan 58.6833 0.0000 nan 100.00%
0 2 0.0000 19 58.6833 0.0000 104 100.00%
CPXPARAM_MIP_Cuts_Covers 0
27
Node Left Objective IInf Best_Integer Best_Bound ItCnt Gap
0+ 0 nan nan 94.5045 0.0000 nan 100.00%
0 0 0.0000 23 94.5045 0.0000 105 100.00%
0+ 0 nan nan 26.1158 0.0000 nan 100.00%
0 2 0.0000 13 26.1158 0.0000 105 100.00%
CPXPARAM_MIP_Cuts_Covers 0
28
Node Left Objective IInf Best_Integer Best_Bound ItCnt Gap
0+ 0 nan nan 133.7092 0.0000 nan 100.00%
0+ 0 nan nan 129.6212 0.0000 nan 100.00%
0+ 0 nan nan 108.6480 0.0000 nan 100.00%
0 0 0.0000 27 108.6480 0.0000 115 100.00%
0+ 0 nan nan 104.2364 0.0000 nan 100.00%
0+ 0 nan nan 103.9746 0.0000 nan 100.00%
0+ 0 nan nan 89.6059 0.0000 nan 100.00%
0 2 0.0000 24 89.6059 0.0000 115 100.00%
CPXPARAM_MIP_Cuts_Covers 0
29
Node Left Objective IInf Best_Integer Best_Bound ItCnt Gap
0+ 0 nan nan 133.7092 0.0000 nan 100.00%
0+ 0 nan nan 129.6212 0.0000 nan 100.00%
0 0 0.0000 27 129.6212 0.0000 114 100.00%
0+ 0 nan nan 97.5918 0.0000 nan 100.00%
0+ 0 nan nan 84.6484 0.0000 nan 100.00%
0+ 0 nan nan 69.6571 0.0000 nan 100.00%
0 2 0.0000 18 69.6571 0.0000 114 100.00%
CPXPARAM_MIP_Cuts_Covers 0
30
Node Left Objective IInf Best_Integer Best_Bound ItCnt Gap
0+ 0 nan nan 133.7092 0.0000 nan 100.00%
0+ 0 nan nan 114.7297 0.0000 nan 100.00%
0 0 0.0000 22 114.7297 0.0000 117 100.00%
0+ 0 nan nan 105.5743 0.0000 nan 100.00%
0+ 0 nan nan 94.2191 0.0000 nan 100.00%
0+ 0 nan nan 83.8364 0.0000 nan 100.00%
0 2 0.0000 19 83.8364 0.0000 117 100.00%
CPXPARAM_MIP_Cuts_Covers 0
31
Node Left Objective IInf Best_Integer Best_Bound ItCnt Gap
0+ 0 nan nan 133.7092 0.0000 nan 100.00%
0+ 0 nan nan 114.7297 0.0000 nan 100.00%
0 0 0.0000 22 114.7297 0.0000 119 100.00%
0+ 0 nan nan 72.7936 0.0000 nan 100.00%
0+ 0 nan nan 67.0189 0.0000 nan 100.00%
0+ 0 nan nan 50.7271 0.0000 nan 100.00%
0 2 0.0000 13 50.7271 0.0000 119 100.00%
CPXPARAM_MIP_Cuts_Covers 0
32
Node Left Objective IInf Best_Integer Best_Bound ItCnt Gap
0+ 0 nan nan 110.7059 0.0000 nan 100.00%
0+ 0 nan nan 93.8685 0.0000 nan 100.00%
0+ 0 nan nan 88.1652 0.0000 nan 100.00%
0 0 0.0000 27 88.1652 0.0000 130 100.00%
0+ 0 nan nan 83.2403 0.0000 nan 100.00%
0+ 0 nan nan 78.7212 0.0000 nan 100.00%
0 2 0.0000 25 78.7212 0.0000 130 100.00%
CPXPARAM_MIP_Cuts_Covers 0
33
Node Left Objective IInf Best_Integer Best_Bound ItCnt Gap
0+ 0 nan nan 110.7059 0.0000 nan 100.00%
0+ 0 nan nan 93.8685 0.0000 nan 100.00%
0 0 0.0000 27 93.8685 0.0000 120 100.00%
0+ 0 nan nan 67.8253 0.0000 nan 100.00%
0+ 0 nan nan 56.3660 0.0000 nan 100.00%
0 2 0.0000 18 56.3660 0.0000 120 100.00%
CPXPARAM_MIP_Cuts_Covers 0
34
Node Left Objective IInf Best_Integer Best_Bound ItCnt Gap
0+ 0 nan nan 110.7059 0.0000 nan 100.00%
0+ 0 nan nan 74.9711 0.0000 nan 100.00%
0 0 0.0000 23 74.9711 0.0000 119 100.00%
0+ 0 nan nan 70.1819 0.0000 nan 100.00%
0+ 0 nan nan 67.4782 0.0000 nan 100.00%
0+ 0 nan nan 57.0867 0.0000 nan 100.00%
0 2 0.0000 19 57.0867 0.0000 119 100.00%
CPXPARAM_MIP_Cuts_Covers 0
35
Node Left Objective IInf Best_Integer Best_Bound ItCnt Gap
0+ 0 nan nan 110.7059 0.0000 nan 100.00%
0+ 0 nan nan 74.9711 0.0000 nan 100.00%
0 0 0.0000 24 74.9711 0.0000 114 100.00%
0+ 0 nan nan 57.9339 0.0000 nan 100.00%
0+ 0 nan nan 55.7899 0.0000 nan 100.00%
0+ 0 nan nan 43.3086 0.0000 nan 100.00%
0 2 0.0000 14 43.3086 0.0000 114 100.00%
CPXPARAM_MIP_Cuts_Covers 0
36
Node Left Objective IInf Best_Integer Best_Bound ItCnt Gap
0+ 0 nan nan 123.7135 0.0000 nan 100.00%
0+ 0 nan nan 108.6148 0.0000 nan 100.00%
0 0 0.0000 27 108.6148 0.0000 117 100.00%
0+ 0 nan nan 98.7082 0.0000 nan 100.00%
0+ 0 nan nan 87.0253 0.0000 nan 100.00%
0+ 0 nan nan 65.8991 0.0000 nan 100.00%
0 2 0.0000 24 65.8991 0.0000 117 100.00%
CPXPARAM_MIP_Cuts_Covers 0
37
Node Left Objective IInf Best_Integer Best_Bound ItCnt Gap
0+ 0 nan nan 123.7135 0.0000 nan 100.00%
0+ 0 nan nan 108.6148 0.0000 nan 100.00%
0 0 0.0000 27 108.6148 0.0000 118 100.00%
0+ 0 nan nan 74.7826 0.0000 nan 100.00%
0+ 0 nan nan 74.5456 0.0000 nan 100.00%
0+ 0 nan nan 61.3888 0.0000 nan 100.00%
0 2 0.0000 18 61.3888 0.0000 118 100.00%
CPXPARAM_MIP_Cuts_Covers 0
38
Node Left Objective IInf Best_Integer Best_Bound ItCnt Gap
0+ 0 nan nan 123.7135 0.0000 nan 100.00%
0+ 0 nan nan 89.1896 0.0000 nan 100.00%
0 0 0.0000 23 89.1896 0.0000 119 100.00%
0+ 0 nan nan 83.5087 0.0000 nan 100.00%
0+ 0 nan nan 64.2486 0.0000 nan 100.00%
0+ 0 nan nan 60.8203 0.0000 nan 100.00%
0+ 0 nan nan 50.1209 0.0000 nan 100.00%
0 2 0.0000 19 50.1209 0.0000 119 100.00%
CPXPARAM_MIP_Cuts_Covers 0
39
Node Left Objective IInf Best_Integer Best_Bound ItCnt Gap
0+ 0 nan nan 123.7135 0.0000 nan 100.00%
0+ 0 nan nan 89.1896 0.0000 nan 100.00%
0 0 0.0000 24 89.1896 0.0000 117 100.00%
0+ 0 nan nan 50.1463 0.0000 nan 100.00%
0+ 0 nan nan 44.8477 0.0000 nan 100.00%
0 2 0.0000 13 44.8477 0.0000 117 100.00%
CPXPARAM_MIP_Cuts_Covers 0
